\ SCIP STATISTICS
\   Problem name     : 
\   Variables        : 27 (10 binary, 0 integer, 0 implicit integer, 17 continuous)
\   Constraints      : 43
Maximize
 Obj: +1 x[6] +1 x[7] +1 x[1] +1 x[2] +1 x[3] +1 x[4] +1 x[5]
Subject to
  +1 x[1] -1 x[2] -1 x[4] -1 x[6] = +0
  +1 x[2] -1 x[3] = +0
  +1 x[3] +1 x[4] -1 x[5] +1 x[7] = +0
  +1 x[6] -1 x[7] = +0
  -1 x[1] <= +0
  -1 x[2] <= +10
  -1 x[3] <= +10
  -1 x[4] <= +10
  -1 x[5] <= +0
  -1 x[6] <= +0
  -1 x[7] <= +0
  +1 x[1] <= +20
  +1 x[2] <= +30
  +1 x[3] <= +30
  +1 x[4] <= +30
  +1 x[5] <= +20
  +1 x[6] <= +10
  +1 x[7] <= +10
  +1 a[1] +1  = +1
  = 1 ->  +1 x[2] <= -1e-07
  +1 a[2] +1  = +1
  = 1 ->  +1 x[3] <= -1e-07
  +1 a[3] +1  = +1
  = 1 ->  +1 x[4] <= -1e-07
  +1 a[4] +1  = +1
  = 1 ->  +1 x[6] <= -1e-07
  +1 a[5] +1  = +1
  = 1 ->  +1 x[7] <= -1e-07
  +1 x[2] +1  >= +1e-07
  +1 x[3] +1  >= +1e-07
  +1 x[4] +1  >= +1e-07
  +1 x[6] +1  >= +1e-07
  +1 x[7] +1  >= +1e-07
Bounds
 0 <= a[1] <= 1
 0 <= a[2] <= 1
 0 <= a[3] <= 1
 0 <= a[4] <= 1
 0 <= a[5] <= 1
 0 <=  <= 1
 0 <=  <= 1
 0 <=  <= 1
 0 <=  <= 1
 0 <=  <= 1
 x[6] free
 x[7] free
 x[1] free
 x[2] free
 x[3] free
 x[4] free
 x[5] free
  free
  free
  free
  free
  free
Binaries
 a[1] a[2] a[3] a[4] a[5]     
SOS
  S1:: :0.4 a[1]:0.6
  S1:: :0.4 a[2]:0.6
  S1:: :0.4 a[3]:0.6
  S1:: :0.4 a[4]:0.6
  S1:: :0.4 a[5]:0.6
End
